JulietBench/Juliet_Based_Patch_Bench/linux/CWE-189-Numeric-Errors/CVE_2012_2100_d50f2ab6f050311dbf7b8f5501b25f0bf64a439b/solverext4_fill_flex_info_Snippet_patch1.smt2
; benchmark generated from python API
(set-info :status unknown)
(declare-fun R () (_ BitVec 32))
(declare-fun rdi () (_ BitVec 64))
(assert
 (let (($x240 (= (_ bv1 32) R)))
 (let ((?x6 ((_ extract 31 0) rdi)))
 (let (($x11 (bvsge (_ bv0 32) ?x6)))
 (let (($x244 (and $x11 $x240)))
 (let ((?x27 ((_ extract 4 0) rdi)))
 (let ((?x39 (concat (_ bv0 59) ?x27)))
 (let ((?x40 (bvshl (_ bv1 64) ?x39)))
 (let ((?x41 ((_ extract 31 0) ?x40)))
 (let (($x199 (= R ?x41)))
 (let (($x15 (bvslt (_ bv0 32) ?x6)))
 (let (($x246 (bvsge (_ bv31 32) ?x6)))
 (let (($x255 (and $x246 $x15 $x199)))
 (let (($x143 (bvslt (_ bv31 32) ?x6)))
 (let (($x130 (and $x143 $x15 $x240)))
 (let (($x239 (or $x130 $x255 $x244)))
 (let (($x129 (not $x239)))
 (let (($x31 (bvsge (_ bv1 32) ?x41)))
 (let (($x267 (and $x31 $x240)))
 (let (($x48 (bvslt (_ bv1 32) ?x41)))
 (let (($x220 (and $x48 $x199)))
 (let (($x217 (or $x220 $x267)))
 (let (($x249 (not $x217)))
 (let (($x65 (and $x249 $x129)))
 (let (($x103 (and $x217 $x239)))
 (let (($x269 (or $x103 $x65)))
 (not $x269)))))))))))))))))))))))))))
(check-sat)
